 O Ti 
 1.0000000000000000
    13.9500000000000011    0.0000000000000000    0.0000000000000000
     0.0000000000000000   13.9500000000000011    0.0000000000000000
     0.0000000000000000    0.0000000000000000    8.9280000000000008
 108  54
Cartesian
  3.7365895255885855  0.9134104744114493  1.4879999999999789
  0.9134104744114493  3.7365895255885855  1.4879999999999789
  1.4115895255885178  1.4115895255885178  0.0000000000000000
  3.2384104744114151  3.2384104744114151  0.0000000000000000
  3.7365895255885855  0.9134104744114493  4.4640000000000004
  0.9134104744114493  3.7365895255885855  4.4640000000000004
  1.4115895255885178  1.4115895255885178  2.9760000000000213
  3.2384104744114151  3.2384104744114151  2.9760000000000213
  3.7365895255885855  0.9134104744114493  7.4400000000000217
  0.9134104744114493  3.7365895255885855  7.4400000000000217
  1.4115895255885178  1.4115895255885178  5.9519999999999795
  3.2384104744114151  3.2384104744114151  5.9519999999999795
  3.7365895255885855  5.5634104744114810  1.4879999999999789
  0.9134104744114493  8.3865895255885192  1.4879999999999789
  1.4115895255885178  6.0615895255885528  0.0000000000000000
  3.2384104744114151  7.8884104744114492  0.0000000000000000
  3.7365895255885855  5.5634104744114810  4.4640000000000004
  0.9134104744114493  8.3865895255885192  4.4640000000000004
  1.4115895255885178  6.0615895255885528  2.9760000000000213
  3.2384104744114151  7.8884104744114492  2.9760000000000213
  3.7365895255885855  5.5634104744114810  7.4400000000000217
  0.9134104744114493  8.3865895255885192  7.4400000000000217
  1.4115895255885178  6.0615895255885528  5.9519999999999795
  3.2384104744114151  7.8884104744114492  5.9519999999999795
  3.7365895255885855 10.2134104744114165  1.4879999999999789
  0.9134104744114493 13.0365895255885533  1.4879999999999789
  1.4115895255885178 10.7115895255885860  0.0000000000000000
  3.2384104744114151 12.5384104744114833  0.0000000000000000
  3.7365895255885855 10.2134104744114165  4.4640000000000004
  0.9134104744114493 13.0365895255885533  4.4640000000000004
  1.4115895255885178 10.7115895255885860  2.9760000000000213
  3.2384104744114151 12.5384104744114833  2.9760000000000213
  3.7365895255885855 10.2134104744114165  7.4400000000000217
  0.9134104744114493 13.0365895255885533  7.4400000000000217
  1.4115895255885178 10.7115895255885860  5.9519999999999795
  3.2384104744114151 12.5384104744114833  5.9519999999999795
  8.3865895255885192  0.9134104744114493  1.4879999999999789
  5.5634104744114810  3.7365895255885855  1.4879999999999789
  6.0615895255885528  1.4115895255885178  0.0000000000000000
  7.8884104744114492  3.2384104744114151  0.0000000000000000
  8.3865895255885192  0.9134104744114493  4.4640000000000004
  5.5634104744114810  3.7365895255885855  4.4640000000000004
  6.0615895255885528  1.4115895255885178  2.9760000000000213
  7.8884104744114492  3.2384104744114151  2.9760000000000213
  8.3865895255885192  0.9134104744114493  7.4400000000000217
  5.5634104744114810  3.7365895255885855  7.4400000000000217
  6.0615895255885528  1.4115895255885178  5.9519999999999795
  7.8884104744114492  3.2384104744114151  5.9519999999999795
  8.3865895255885192  5.5634104744114810  1.4879999999999789
  5.5634104744114810  8.3865895255885192  1.4879999999999789
  6.0615895255885528  6.0615895255885528  0.0000000000000000
  7.8884104744114492  7.8884104744114492  0.0000000000000000
  8.4430531066120604  5.5069468933879397  4.4640000000000004
  5.5069468933879397  8.4430531066120604  4.4640000000000004
  6.0250531066120949  6.0250531066120949  2.9164800000000222
  7.9249468933879070  7.9249468933879070  2.9164800000000222
  8.3865895255885192  5.5634104744114810  7.4400000000000217
  5.5634104744114810  8.3865895255885192  7.4400000000000217
  6.0250531066120949  6.0250531066120949  6.0115199999999787
  7.9249468933879070  7.9249468933879070  6.0115199999999787
  8.3865895255885192 10.2134104744114165  1.4879999999999789
  5.5634104744114810 13.0365895255885533  1.4879999999999789
  6.0615895255885528 10.7115895255885860  0.0000000000000000
  7.8884104744114492 12.5384104744114833  0.0000000000000000
  8.3865895255885192 10.2134104744114165  4.4640000000000004
  5.5634104744114810 13.0365895255885533  4.4640000000000004
  6.0615895255885528 10.7115895255885860  2.9760000000000213
  7.8884104744114492 12.5384104744114833  2.9760000000000213
  8.3865895255885192 10.2134104744114165  7.4400000000000217
  5.5634104744114810 13.0365895255885533  7.4400000000000217
  6.0615895255885528 10.7115895255885860  5.9519999999999795
  7.8884104744114492 12.5384104744114833  5.9519999999999795
 13.0365895255885533  0.9134104744114493  1.4879999999999789
 10.2134104744114165  3.7365895255885855  1.4879999999999789
 10.7115895255885860  1.4115895255885178  0.0000000000000000
 12.5384104744114833  3.2384104744114151  0.0000000000000000
 13.0365895255885533  0.9134104744114493  4.4640000000000004
 10.2134104744114165  3.7365895255885855  4.4640000000000004
 10.7115895255885860  1.4115895255885178  2.9760000000000213
 12.5384104744114833  3.2384104744114151  2.9760000000000213
 13.0365895255885533  0.9134104744114493  7.4400000000000217
 10.2134104744114165  3.7365895255885855  7.4400000000000217
 10.7115895255885860  1.4115895255885178  5.9519999999999795
 12.5384104744114833  3.2384104744114151  5.9519999999999795
 13.0365895255885533  5.5634104744114810  1.4879999999999789
 10.2134104744114165  8.3865895255885192  1.4879999999999789
 10.7115895255885860  6.0615895255885528  0.0000000000000000
 12.5384104744114833  7.8884104744114492  0.0000000000000000
 13.0365895255885533  5.5634104744114810  4.4640000000000004
 10.2134104744114165  8.3865895255885192  4.4640000000000004
 10.7115895255885860  6.0615895255885528  2.9760000000000213
 12.5384104744114833  7.8884104744114492  2.9760000000000213
 13.0365895255885533  5.5634104744114810  7.4400000000000217
 10.2134104744114165  8.3865895255885192  7.4400000000000217
 10.7115895255885860  6.0615895255885528  5.9519999999999795
 12.5384104744114833  7.8884104744114492  5.9519999999999795
 13.0365895255885533 10.2134104744114165  1.4879999999999789
 10.2134104744114165 13.0365895255885533  1.4879999999999789
 10.7115895255885860 10.7115895255885860  0.0000000000000000
 12.5384104744114833 12.5384104744114833  0.0000000000000000
 13.0365895255885533 10.2134104744114165  4.4640000000000004
 10.2134104744114165 13.0365895255885533  4.4640000000000004
 10.7115895255885860 10.7115895255885860  2.9760000000000213
 12.5384104744114833 12.5384104744114833  2.9760000000000213
 13.0365895255885533 10.2134104744114165  7.4400000000000217
 10.2134104744114165 13.0365895255885533  7.4400000000000217
 10.7115895255885860 10.7115895255885860  5.9519999999999795
 12.5384104744114833 12.5384104744114833  5.9519999999999795
  2.3249999999999673  2.3249999999999673  1.4879999999999789
  0.0000000000000000  0.0000000000000000  0.0000000000000000
  2.3249999999999673  2.3249999999999673  4.4640000000000004
  0.0000000000000000  0.0000000000000000  2.9760000000000213
  2.3249999999999673  2.3249999999999673  7.4400000000000217
  0.0000000000000000  0.0000000000000000  5.9519999999999795
  2.3249999999999673  6.9750000000000005  1.4879999999999789
  0.0000000000000000  4.6500000000000332  0.0000000000000000
  2.3249999999999673  6.9750000000000005  4.4640000000000004
  0.0000000000000000  4.6500000000000332  2.9760000000000213
  2.3249999999999673  6.9750000000000005  7.4400000000000217
  0.0000000000000000  4.6500000000000332  5.9519999999999795
  2.3249999999999673 11.6250000000000338  1.4879999999999789
  0.0000000000000000  9.2999999999999670  0.0000000000000000
  2.3249999999999673 11.6250000000000338  4.4640000000000004
  0.0000000000000000  9.2999999999999670  2.9760000000000213
  2.3249999999999673 11.6250000000000338  7.4400000000000217
  0.0000000000000000  9.2999999999999670  5.9519999999999795
  6.9750000000000005  2.3249999999999673  1.4879999999999789
  4.6500000000000332  0.0000000000000000  0.0000000000000000
  6.9750000000000005  2.3249999999999673  4.4640000000000004
  4.6500000000000332  0.0000000000000000  2.9760000000000213
  6.9750000000000005  2.3249999999999673  7.4400000000000217
  4.6500000000000332  0.0000000000000000  5.9519999999999795
  6.9750000000000005  6.9750000000000005  1.4879999999999789
  4.6500000000000332  4.6500000000000332  0.0000000000000000
  6.9750000000000005  6.9750000000000005  4.4640000000000004
  4.6500000000000332  4.6500000000000332  2.9760000000000213
  6.9750000000000005  6.9750000000000005  7.4400000000000217
  4.6500000000000332  4.6500000000000332  5.9519999999999795
  6.9750000000000005 11.6250000000000338  1.4879999999999789
  4.6500000000000332  9.2999999999999670  0.0000000000000000
  6.9750000000000005 11.6250000000000338  4.4640000000000004
  4.6500000000000332  9.2999999999999670  2.9760000000000213
  6.9750000000000005 11.6250000000000338  7.4400000000000217
  4.6500000000000332  9.2999999999999670  5.9519999999999795
 11.6250000000000338  2.3249999999999673  1.4879999999999789
  9.2999999999999670  0.0000000000000000  0.0000000000000000
 11.6250000000000338  2.3249999999999673  4.4640000000000004
  9.2999999999999670  0.0000000000000000  2.9760000000000213
 11.6250000000000338  2.3249999999999673  7.4400000000000217
  9.2999999999999670  0.0000000000000000  5.9519999999999795
 11.6250000000000338  6.9750000000000005  1.4879999999999789
  9.2999999999999670  4.6500000000000332  0.0000000000000000
 11.6250000000000338  6.9750000000000005  4.4640000000000004
  9.2999999999999670  4.6500000000000332  2.9760000000000213
 11.6250000000000338  6.9750000000000005  7.4400000000000217
  9.2999999999999670  4.6500000000000332  5.9519999999999795
 11.6250000000000338 11.6250000000000338  1.4879999999999789
  9.2999999999999670  9.2999999999999670  0.0000000000000000
 11.6250000000000338 11.6250000000000338  4.4640000000000004
  9.2999999999999670  9.2999999999999670  2.9760000000000213
 11.6250000000000338 11.6250000000000338  7.4400000000000217
  9.2999999999999670  9.2999999999999670  5.9519999999999795
